nN = 10;
nR = 40;
nH = 1;

a = [[15, 22, 22, 22, 23, 25, 22, 25, 21, 23, 19, 24, 18, 24, 19, 22, 18, 23, 21, 22, 22, 16, 24, 16, 21, 17, 25, 25, 24, 21, 20, 23, 21, 19, 23, 19, 15, 19, 18, 24], [16, 19, 21, 18, 18, 21, 21, 16, 16, 17, 21, 25, 19, 24, 19, 19, 24, 21, 17, 24, 24, 23, 18, 19, 25, 15, 22, 22, 24, 23, 23, 19, 19, 19, 22, 19, 25, 16, 24, 25], [19, 20, 16, 21, 15, 17, 22, 17, 21, 20, 18, 21, 21, 25, 24, 16, 23, 19, 19, 24, 21, 19, 19, 24, 15, 25, 16, 15, 23, 22, 25, 17, 15, 21, 18, 17, 17, 16, 16, 25], [18, 23, 24, 17, 17, 25, 24, 15, 16, 22, 24, 17, 22, 19, 18, 18, 25, 20, 18, 22, 23, 15, 19, 15, 24, 22, 19, 15, 24, 15, 25, 21, 22, 17, 23, 25, 17, 20, 19, 21], [19, 19, 16, 22, 24, 15, 20, 19, 22, 20, 23, 20, 18, 24, 20, 16, 16, 19, 18, 25, 20, 16, 24, 22, 15, 23, 18, 20, 19, 18, 19, 18, 23, 19, 20, 23, 20, 19, 21, 17], [23, 16, 19, 15, 19, 20, 21, 24, 18, 22, 21, 25, 25, 23, 22, 23, 15, 19, 18, 20, 15, 22, 21, 25, 25, 16, 17, 16, 24, 22, 15, 17, 20, 24, 24, 18, 22, 21, 18, 17], [22, 21, 15, 25, 23, 16, 24, 22, 23, 15, 20, 22, 15, 15, 24, 21, 16, 20, 20, 22, 15, 23, 21, 23, 21, 24, 24, 24, 21, 16, 19, 23, 18, 24, 25, 21, 18, 18, 20, 21], [21, 19, 15, 20, 23, 24, 16, 19, 18, 20, 17, 15, 21, 18, 15, 16, 17, 19, 18, 17, 20, 22, 24, 15, 18, 19, 18, 25, 20, 21, 18, 18, 15, 20, 16, 17, 19, 16, 21, 22], [21, 18, 25, 15, 20, 18, 15, 15, 16, 25, 21, 24, 16, 25, 20, 21, 18, 18, 25, 20, 25, 20, 16, 20, 19, 25, 15, 22, 20, 19, 15, 23, 17, 19, 18, 23, 24, 18, 19, 17], [19, 17, 21, 19, 17, 15, 23, 15, 16, 20, 20, 21, 23, 23, 15, 18, 18, 19, 24, 20, 24, 20, 18, 15, 15, 21, 16, 24, 22, 16, 15, 15, 19, 20, 22, 23, 19, 21, 24, 21]];
c = [[[0, 0, 0, 0, 0, 0, 0, 0, 0, 0, 0, 0, 0, 0, 0, 0, 0, 0, 0, 0, 0, 0, 0, 0, 0, 0, 0, 0, 0, 0, 0, 0, 0, 0, 0, 0, 0, 0, 0, 0], [39, 43, 35, 49, 40, 44, 38, 39, 34, 49, 32, 30, 32, 41, 31, 34, 50, 44, 36, 34, 37, 49, 41, 32, 43, 32, 41, 31, 44, 40, 39, 44, 40, 47, 43, 37, 42, 48, 50, 31], [33, 42, 47, 50, 33, 39, 31, 37, 41, 33, 43, 37, 37, 48, 46, 32, 37, 42, 36, 32, 44, 39, 43, 34, 46, 39, 39, 31, 43, 42, 46, 36, 34, 36, 32, 47, 39, 35, 30, 37], [31, 39, 33, 35, 41, 35, 36, 36, 33, 48, 32, 35, 30, 37, 49, 31, 45, 44, 48, 34, 47, 33, 41, 45, 50, 44, 31, 50, 49, 32, 42, 33, 32, 35, 40, 32, 34, 50, 50, 34], [46, 50, 30, 31, 50, 46, 31, 32, 45, 35, 49, 33, 48, 35, 35, 30, 34, 50, 30, 38, 33, 39, 44, 31, 48, 42, 47, 38, 33, 50, 37, 30, 40, 50, 42, 39, 38, 42, 31, 34], [47, 50, 40, 43, 50, 38, 35, 37, 33, 33, 49, 45, 43, 50, 43, 42, 30, 34, 42, 32, 44, 34, 46, 34, 45, 50, 42, 40, 40, 33, 33, 49, 31, 46, 39, 33, 42, 43, 44, 41], [47, 35, 39, 41, 42, 40, 49, 40, 44, 31, 40, 39, 40, 44, 33, 33, 46, 36, 41, 35, 36, 30, 38, 36, 50, 47, 47, 43, 35, 36, 43, 48, 34, 32, 37, 46, 31, 35, 37, 35], [44, 34, 50, 39, 41, 41, 40, 39, 49, 33, 46, 33, 45, 42, 50, 49, 32, 38, 33, 47, 37, 37, 37, 33, 33, 37, 43, 37, 38, 42, 39, 41, 35, 50, 50, 40, 33, 48, 49, 47], [50, 30, 32, 31, 40, 45, 45, 35, 45, 44, 46, 36, 47, 40, 39, 34, 43, 47, 34, 49, 44, 37, 42, 30, 47, 47, 35, 36, 36, 33, 45, 42, 36, 32, 32, 30, 46, 49, 37, 40], [35, 35, 50, 39, 30, 41, 47, 50, 42, 32, 41, 31, 36, 35, 43, 33, 44, 46, 31, 48, 44, 47, 49, 36, 39, 48, 41, 40, 50, 46, 40, 50, 36, 46, 30, 48, 48, 46, 39, 49]], [[0, 0, 0, 0, 0, 0, 0, 0, 0, 0, 0, 0, 0, 0, 0, 0, 0, 0, 0, 0, 0, 0, 0, 0, 0, 0, 0, 0, 0, 0, 0, 0, 0, 0, 0, 0, 0, 0, 0, 0], [0, 0, 0, 0, 0, 0, 0, 0, 0, 0, 0, 0, 0, 0, 0, 0, 0, 0, 0, 0, 0, 0, 0, 0, 0, 0, 0, 0, 0, 0, 0, 0, 0, 0, 0, 0, 0, 0, 0, 0], [39, 32, 47, 33, 30, 41, 50, 41, 38, 36, 50, 32, 31, 49, 40, 45, 41, 35, 47, 44, 40, 41, 44, 50, 45, 35, 50, 37, 36, 42, 39, 37, 45, 35, 50, 33, 42, 34, 41, 32], [47, 44, 45, 32, 46, 41, 31, 49, 37, 31, 30, 48, 33, 48, 37, 48, 45, 31, 35, 43, 38, 48, 43, 32, 30, 37, 38, 36, 40, 33, 34, 44, 31, 44, 37, 36, 44, 45, 36, 43], [35, 47, 44, 36, 32, 35, 35, 33, 46, 42, 34, 39, 36, 45, 49, 38, 35, 37, 47, 30, 45, 39, 32, 47, 31, 32, 40, 33, 48, 49, 48, 31, 31, 46, 41, 47, 49, 35, 44, 34], [35, 34, 43, 31, 35, 45, 42, 40, 31, 47, 31, 43, 38, 35, 39, 36, 38, 46, 47, 50, 48, 50, 49, 42, 33, 33, 42, 43, 41, 41, 33, 33, 40, 31, 35, 38, 50, 45, 42, 31], [37, 40, 43, 42, 47, 30, 35, 38, 32, 36, 44, 40, 32, 41, 33, 43, 49, 46, 38, 40, 48, 33, 34, 43, 38, 45, 49, 31, 45, 40, 46, 49, 48, 33, 32, 37, 46, 34, 49, 45], [43, 36, 33, 50, 37, 40, 49, 38, 36, 32, 41, 45, 34, 34, 48, 47, 41, 30, 32, 46, 43, 40, 42, 37, 39, 37, 33, 40, 32, 42, 37, 49, 48, 30, 37, 37, 31, 39, 49, 38], [38, 31, 39, 45, 35, 49, 37, 31, 40, 30, 40, 39, 49, 49, 34, 40, 38, 48, 31, 32, 36, 36, 44, 30, 41, 33, 39, 34, 34, 50, 39, 46, 40, 34, 38, 43, 48, 39, 33, 31], [39, 30, 43, 44, 47, 43, 41, 36, 49, 46, 32, 40, 40, 43, 38, 44, 38, 49, 30, 48, 32, 41, 33, 41, 46, 39, 31, 45, 39, 34, 46, 48, 49, 50, 31, 36, 46, 30, 44, 32]], [[0, 0, 0, 0, 0, 0, 0, 0, 0, 0, 0, 0, 0, 0, 0, 0, 0, 0, 0, 0, 0, 0, 0, 0, 0, 0, 0, 0, 0, 0, 0, 0, 0, 0, 0, 0, 0, 0, 0, 0], [0, 0, 0, 0, 0, 0, 0, 0, 0, 0, 0, 0, 0, 0, 0, 0, 0, 0, 0, 0, 0, 0, 0, 0, 0, 0, 0, 0, 0, 0, 0, 0, 0, 0, 0, 0, 0, 0, 0, 0], [0, 0, 0, 0, 0, 0, 0, 0, 0, 0, 0, 0, 0, 0, 0, 0, 0, 0, 0, 0, 0, 0, 0, 0, 0, 0, 0, 0, 0, 0, 0, 0, 0, 0, 0, 0, 0, 0, 0, 0], [50, 39, 43, 38, 46, 36, 48, 41, 43, 38, 50, 35, 37, 36, 30, 42, 40, 40, 37, 34, 32, 31, 37, 36, 50, 46, 34, 34, 43, 46, 34, 45, 36, 36, 42, 34, 49, 44, 33, 48], [32, 44, 36, 47, 45, 50, 48, 45, 50, 50, 50, 35, 40, 42, 46, 48, 36, 39, 31, 35, 48, 31, 47, 34, 31, 48, 31, 38, 33, 31, 32, 46, 33, 32, 35, 42, 43, 46, 30, 31], [48, 31, 49, 49, 50, 44, 40, 37, 40, 45, 33, 47, 35, 36, 47, 37, 47, 34, 40, 38, 32, 31, 47, 41, 49, 37, 46, 34, 40, 36, 48, 37, 48, 48, 34, 43, 45, 32, 43, 36], [32, 46, 50, 46, 35, 44, 50, 44, 44, 33, 33, 46, 47, 31, 41, 34, 42, 48, 48, 37, 33, 32, 43, 44, 39, 46, 48, 46, 32, 43, 50, 36, 31, 47, 46, 31, 44, 33, 45, 30], [43, 30, 32, 43, 30, 34, 49, 32, 46, 37, 33, 42, 31, 38, 49, 43, 43, 36, 35, 39, 48, 46, 31, 47, 46, 38, 44, 38, 50, 36, 44, 41, 41, 38, 38, 40, 39, 38, 44, 41], [43, 42, 50, 37, 37, 35, 32, 34, 40, 50, 31, 31, 35, 32, 32, 46, 50, 37, 32, 32, 38, 45, 38, 34, 39, 47, 31, 38, 48, 49, 50, 36, 37, 39, 33, 35, 40, 32, 38, 39], [31, 44, 44, 48, 39, 47, 30, 38, 38, 30, 47, 36, 31, 36, 37, 45, 50, 45, 46, 46, 44, 49, 35, 42, 39, 44, 34, 45, 39, 42, 45, 33, 35, 48, 36, 36, 43, 50, 37, 36]], [[0, 0, 0, 0, 0, 0, 0, 0, 0, 0, 0, 0, 0, 0, 0, 0, 0, 0, 0, 0, 0, 0, 0, 0, 0, 0, 0, 0, 0, 0, 0, 0, 0, 0, 0, 0, 0, 0, 0, 0], [0, 0, 0, 0, 0, 0, 0, 0, 0, 0, 0, 0, 0, 0, 0, 0, 0, 0, 0, 0, 0, 0, 0, 0, 0, 0, 0, 0, 0, 0, 0, 0, 0, 0, 0, 0, 0, 0, 0, 0], [0, 0, 0, 0, 0, 0, 0, 0, 0, 0, 0, 0, 0, 0, 0, 0, 0, 0, 0, 0, 0, 0, 0, 0, 0, 0, 0, 0, 0, 0, 0, 0, 0, 0, 0, 0, 0, 0, 0, 0], [0, 0, 0, 0, 0, 0, 0, 0, 0, 0, 0, 0, 0, 0, 0, 0, 0, 0, 0, 0, 0, 0, 0, 0, 0, 0, 0, 0, 0, 0, 0, 0, 0, 0, 0, 0, 0, 0, 0, 0], [33, 43, 49, 40, 45, 46, 39, 34, 32, 49, 33, 37, 36, 31, 39, 35, 42, 32, 43, 34, 47, 40, 41, 39, 42, 35, 35, 34, 35, 46, 30, 43, 35, 31, 50, 31, 49, 47, 44, 49], [31, 33, 37, 45, 40, 33, 43, 50, 30, 50, 37, 36, 35, 37, 42, 47, 31, 38, 46, 49, 44, 46, 35, 36, 50, 43, 31, 47, 49, 34, 47, 41, 46, 32, 47, 37, 30, 40, 47, 44], [47, 46, 46, 41, 43, 41, 39, 37, 30, 38, 47, 41, 49, 48, 38, 50, 42, 33, 30, 39, 46, 34, 42, 31, 50, 48, 39, 46, 41, 50, 46, 36, 43, 32, 30, 39, 32, 33, 41, 38], [48, 39, 46, 43, 43, 44, 31, 30, 38, 44, 47, 34, 50, 33, 49, 47, 46, 32, 47, 34, 46, 31, 46, 36, 33, 48, 47, 31, 47, 30, 50, 36, 44, 37, 35, 34, 48, 48, 36, 44], [45, 33, 49, 41, 46, 41, 47, 36, 37, 36, 38, 43, 45, 47, 36, 40, 38, 39, 43, 39, 30, 44, 42, 37, 32, 32, 44, 38, 32, 37, 41, 32, 47, 34, 46, 49, 42, 49, 37, 33], [30, 34, 38, 34, 46, 42, 38, 32, 43, 43, 35, 33, 37, 44, 34, 37, 46, 43, 31, 40, 36, 38, 45, 39, 48, 38, 35, 48, 35, 41, 39, 41, 41, 34, 30, 37, 30, 50, 40, 37]], [[0, 0, 0, 0, 0, 0, 0, 0, 0, 0, 0, 0, 0, 0, 0, 0, 0, 0, 0, 0, 0, 0, 0, 0, 0, 0, 0, 0, 0, 0, 0, 0, 0, 0, 0, 0, 0, 0, 0, 0], [0, 0, 0, 0, 0, 0, 0, 0, 0, 0, 0, 0, 0, 0, 0, 0, 0, 0, 0, 0, 0, 0, 0, 0, 0, 0, 0, 0, 0, 0, 0, 0, 0, 0, 0, 0, 0, 0, 0, 0], [0, 0, 0, 0, 0, 0, 0, 0, 0, 0, 0, 0, 0, 0, 0, 0, 0, 0, 0, 0, 0, 0, 0, 0, 0, 0, 0, 0, 0, 0, 0, 0, 0, 0, 0, 0, 0, 0, 0, 0], [0, 0, 0, 0, 0, 0, 0, 0, 0, 0, 0, 0, 0, 0, 0, 0, 0, 0, 0, 0, 0, 0, 0, 0, 0, 0, 0, 0, 0, 0, 0, 0, 0, 0, 0, 0, 0, 0, 0, 0], [0, 0, 0, 0, 0, 0, 0, 0, 0, 0, 0, 0, 0, 0, 0, 0, 0, 0, 0, 0, 0, 0, 0, 0, 0, 0, 0, 0, 0, 0, 0, 0, 0, 0, 0, 0, 0, 0, 0, 0], [42, 46, 36, 46, 44, 42, 33, 33, 32, 48, 31, 48, 48, 37, 40, 31, 32, 34, 35, 31, 44, 50, 47, 35, 49, 34, 33, 50, 36, 38, 47, 46, 45, 50, 41, 41, 39, 41, 40, 48], [42, 36, 40, 43, 39, 30, 50, 46, 38, 41, 43, 41, 49, 50, 47, 32, 47, 50, 41, 44, 46, 30, 50, 37, 32, 41, 50, 32, 42, 47, 49, 32, 30, 35, 44, 41, 50, 43, 31, 42], [48, 45, 33, 45, 36, 38, 36, 50, 36, 39, 41, 45, 30, 35, 50, 50, 32, 41, 30, 43, 47, 49, 40, 45, 30, 39, 36, 35, 34, 30, 50, 45, 31, 35, 50, 42, 45, 33, 49, 31], [40, 35, 48, 49, 47, 34, 49, 33, 39, 31, 36, 44, 37, 46, 37, 38, 44, 36, 43, 44, 43, 44, 36, 36, 31, 38, 44, 45, 50, 30, 33, 43, 32, 43, 35, 50, 41, 47, 36, 34], [47, 44, 36, 30, 38, 33, 49, 42, 41, 30, 34, 41, 31, 40, 38, 30, 49, 47, 43, 45, 44, 40, 47, 34, 48, 43, 50, 44, 40, 38, 34, 32, 49, 30, 38, 49, 35, 35, 41, 41]], [[0, 0, 0, 0, 0, 0, 0, 0, 0, 0, 0, 0, 0, 0, 0, 0, 0, 0, 0, 0, 0, 0, 0, 0, 0, 0, 0, 0, 0, 0, 0, 0, 0, 0, 0, 0, 0, 0, 0, 0], [0, 0, 0, 0, 0, 0, 0, 0, 0, 0, 0, 0, 0, 0, 0, 0, 0, 0, 0, 0, 0, 0, 0, 0, 0, 0, 0, 0, 0, 0, 0, 0, 0, 0, 0, 0, 0, 0, 0, 0], [0, 0, 0, 0, 0, 0, 0, 0, 0, 0, 0, 0, 0, 0, 0, 0, 0, 0, 0, 0, 0, 0, 0, 0, 0, 0, 0, 0, 0, 0, 0, 0, 0, 0, 0, 0, 0, 0, 0, 0], [0, 0, 0, 0, 0, 0, 0, 0, 0, 0, 0, 0, 0, 0, 0, 0, 0, 0, 0, 0, 0, 0, 0, 0, 0, 0, 0, 0, 0, 0, 0, 0, 0, 0, 0, 0, 0, 0, 0, 0], [0, 0, 0, 0, 0, 0, 0, 0, 0, 0, 0, 0, 0, 0, 0, 0, 0, 0, 0, 0, 0, 0, 0, 0, 0, 0, 0, 0, 0, 0, 0, 0, 0, 0, 0, 0, 0, 0, 0, 0], [0, 0, 0, 0, 0, 0, 0, 0, 0, 0, 0, 0, 0, 0, 0, 0, 0, 0, 0, 0, 0, 0, 0, 0, 0, 0, 0, 0, 0, 0, 0, 0, 0, 0, 0, 0, 0, 0, 0, 0], [32, 37, 47, 42, 50, 50, 40, 44, 50, 47, 39, 32, 36, 47, 36, 42, 31, 46, 46, 33, 31, 35, 50, 32, 43, 45, 47, 38, 40, 42, 42, 38, 40, 30, 47, 34, 45, 30, 35, 41], [39, 30, 36, 45, 38, 39, 34, 33, 30, 42, 35, 31, 36, 41, 35, 35, 33, 41, 39, 40, 47, 45, 35, 48, 33, 37, 39, 31, 42, 41, 30, 34, 30, 43, 36, 44, 49, 48, 34, 35], [36, 30, 46, 44, 39, 37, 36, 37, 47, 32, 36, 36, 34, 35, 37, 38, 37, 34, 41, 43, 43, 47, 47, 48, 43, 45, 39, 30, 47, 37, 33, 40, 34, 47, 48, 44, 31, 46, 34, 44], [32, 46, 47, 31, 37, 36, 31, 45, 30, 48, 33, 45, 42, 35, 33, 31, 48, 49, 46, 42, 50, 33, 47, 41, 37, 38, 38, 35, 35, 45, 45, 37, 42, 32, 45, 33, 38, 32, 47, 38]], [[0, 0, 0, 0, 0, 0, 0, 0, 0, 0, 0, 0, 0, 0, 0, 0, 0, 0, 0, 0, 0, 0, 0, 0, 0, 0, 0, 0, 0, 0, 0, 0, 0, 0, 0, 0, 0, 0, 0, 0], [0, 0, 0, 0, 0, 0, 0, 0, 0, 0, 0, 0, 0, 0, 0, 0, 0, 0, 0, 0, 0, 0, 0, 0, 0, 0, 0, 0, 0, 0, 0, 0, 0, 0, 0, 0, 0, 0, 0, 0], [0, 0, 0, 0, 0, 0, 0, 0, 0, 0, 0, 0, 0, 0, 0, 0, 0, 0, 0, 0, 0, 0, 0, 0, 0, 0, 0, 0, 0, 0, 0, 0, 0, 0, 0, 0, 0, 0, 0, 0], [0, 0, 0, 0, 0, 0, 0, 0, 0, 0, 0, 0, 0, 0, 0, 0, 0, 0, 0, 0, 0, 0, 0, 0, 0, 0, 0, 0, 0, 0, 0, 0, 0, 0, 0, 0, 0, 0, 0, 0], [0, 0, 0, 0, 0, 0, 0, 0, 0, 0, 0, 0, 0, 0, 0, 0, 0, 0, 0, 0, 0, 0, 0, 0, 0, 0, 0, 0, 0, 0, 0, 0, 0, 0, 0, 0, 0, 0, 0, 0], [0, 0, 0, 0, 0, 0, 0, 0, 0, 0, 0, 0, 0, 0, 0, 0, 0, 0, 0, 0, 0, 0, 0, 0, 0, 0, 0, 0, 0, 0, 0, 0, 0, 0, 0, 0, 0, 0, 0, 0], [0, 0, 0, 0, 0, 0, 0, 0, 0, 0, 0, 0, 0, 0, 0, 0, 0, 0, 0, 0, 0, 0, 0, 0, 0, 0, 0, 0, 0, 0, 0, 0, 0, 0, 0, 0, 0, 0, 0, 0], [46, 45, 30, 50, 35, 44, 37, 48, 47, 49, 44, 48, 32, 44, 38, 30, 49, 44, 40, 50, 30, 47, 41, 41, 36, 37, 44, 33, 42, 40, 49, 42, 33, 45, 43, 47, 37, 38, 39, 32], [38, 50, 45, 49, 36, 50, 41, 42, 44, 46, 47, 48, 33, 41, 36, 35, 30, 37, 38, 50, 40, 32, 45, 38, 48, 40, 50, 39, 45, 49, 46, 32, 37, 31, 41, 47, 47, 35, 49, 35], [43, 47, 50, 46, 44, 42, 38, 48, 50, 44, 32, 31, 36, 46, 32, 43, 41, 47, 34, 49, 50, 32, 49, 49, 35, 39, 45, 41, 42, 34, 46, 41, 47, 46, 40, 50, 34, 33, 34, 45]], [[0, 0, 0, 0, 0, 0, 0, 0, 0, 0, 0, 0, 0, 0, 0, 0, 0, 0, 0, 0, 0, 0, 0, 0, 0, 0, 0, 0, 0, 0, 0, 0, 0, 0, 0, 0, 0, 0, 0, 0], [0, 0, 0, 0, 0, 0, 0, 0, 0, 0, 0, 0, 0, 0, 0, 0, 0, 0, 0, 0, 0, 0, 0, 0, 0, 0, 0, 0, 0, 0, 0, 0, 0, 0, 0, 0, 0, 0, 0, 0], [0, 0, 0, 0, 0, 0, 0, 0, 0, 0, 0, 0, 0, 0, 0, 0, 0, 0, 0, 0, 0, 0, 0, 0, 0, 0, 0, 0, 0, 0, 0, 0, 0, 0, 0, 0, 0, 0, 0, 0], [0, 0, 0, 0, 0, 0, 0, 0, 0, 0, 0, 0, 0, 0, 0, 0, 0, 0, 0, 0, 0, 0, 0, 0, 0, 0, 0, 0, 0, 0, 0, 0, 0, 0, 0, 0, 0, 0, 0, 0], [0, 0, 0, 0, 0, 0, 0, 0, 0, 0, 0, 0, 0, 0, 0, 0, 0, 0, 0, 0, 0, 0, 0, 0, 0, 0, 0, 0, 0, 0, 0, 0, 0, 0, 0, 0, 0, 0, 0, 0], [0, 0, 0, 0, 0, 0, 0, 0, 0, 0, 0, 0, 0, 0, 0, 0, 0, 0, 0, 0, 0, 0, 0, 0, 0, 0, 0, 0, 0, 0, 0, 0, 0, 0, 0, 0, 0, 0, 0, 0], [0, 0, 0, 0, 0, 0, 0, 0, 0, 0, 0, 0, 0, 0, 0, 0, 0, 0, 0, 0, 0, 0, 0, 0, 0, 0, 0, 0, 0, 0, 0, 0, 0, 0, 0, 0, 0, 0, 0, 0], [0, 0, 0, 0, 0, 0, 0, 0, 0, 0, 0, 0, 0, 0, 0, 0, 0, 0, 0, 0, 0, 0, 0, 0, 0, 0, 0, 0, 0, 0, 0, 0, 0, 0, 0, 0, 0, 0, 0, 0], [30, 38, 33, 31, 44, 48, 33, 34, 35, 33, 38, 48, 42, 45, 45, 32, 42, 33, 43, 38, 40, 49, 41, 48, 43, 48, 38, 32, 39, 42, 43, 34, 32, 41, 44, 31, 34, 45, 31, 48], [40, 38, 37, 34, 36, 38, 50, 46, 49, 32, 49, 31, 38, 39, 34, 41, 40, 33, 37, 35, 40, 43, 42, 48, 44, 43, 50, 45, 30, 38, 33, 33, 34, 37, 46, 39, 32, 50, 44, 45]], [[0, 0, 0, 0, 0, 0, 0, 0, 0, 0, 0, 0, 0, 0, 0, 0, 0, 0, 0, 0, 0, 0, 0, 0, 0, 0, 0, 0, 0, 0, 0, 0, 0, 0, 0, 0, 0, 0, 0, 0], [0, 0, 0, 0, 0, 0, 0, 0, 0, 0, 0, 0, 0, 0, 0, 0, 0, 0, 0, 0, 0, 0, 0, 0, 0, 0, 0, 0, 0, 0, 0, 0, 0, 0, 0, 0, 0, 0, 0, 0], [0, 0, 0, 0, 0, 0, 0, 0, 0, 0, 0, 0, 0, 0, 0, 0, 0, 0, 0, 0, 0, 0, 0, 0, 0, 0, 0, 0, 0, 0, 0, 0, 0, 0, 0, 0, 0, 0, 0, 0], [0, 0, 0, 0, 0, 0, 0, 0, 0, 0, 0, 0, 0, 0, 0, 0, 0, 0, 0, 0, 0, 0, 0, 0, 0, 0, 0, 0, 0, 0, 0, 0, 0, 0, 0, 0, 0, 0, 0, 0], [0, 0, 0, 0, 0, 0, 0, 0, 0, 0, 0, 0, 0, 0, 0, 0, 0, 0, 0, 0, 0, 0, 0, 0, 0, 0, 0, 0, 0, 0, 0, 0, 0, 0, 0, 0, 0, 0, 0, 0], [0, 0, 0, 0, 0, 0, 0, 0, 0, 0, 0, 0, 0, 0, 0, 0, 0, 0, 0, 0, 0, 0, 0, 0, 0, 0, 0, 0, 0, 0, 0, 0, 0, 0, 0, 0, 0, 0, 0, 0], [0, 0, 0, 0, 0, 0, 0, 0, 0, 0, 0, 0, 0, 0, 0, 0, 0, 0, 0, 0, 0, 0, 0, 0, 0, 0, 0, 0, 0, 0, 0, 0, 0, 0, 0, 0, 0, 0, 0, 0], [0, 0, 0, 0, 0, 0, 0, 0, 0, 0, 0, 0, 0, 0, 0, 0, 0, 0, 0, 0, 0, 0, 0, 0, 0, 0, 0, 0, 0, 0, 0, 0, 0, 0, 0, 0, 0, 0, 0, 0], [0, 0, 0, 0, 0, 0, 0, 0, 0, 0, 0, 0, 0, 0, 0, 0, 0, 0, 0, 0, 0, 0, 0, 0, 0, 0, 0, 0, 0, 0, 0, 0, 0, 0, 0, 0, 0, 0, 0, 0], [47, 42, 32, 41, 41, 43, 45, 33, 44, 43, 32, 50, 47, 46, 36, 35, 44, 30, 49, 35, 38, 46, 34, 34, 46, 32, 48, 50, 47, 38, 47, 43, 45, 47, 45, 31, 46, 48, 34, 30]], [[0, 0, 0, 0, 0, 0, 0, 0, 0, 0, 0, 0, 0, 0, 0, 0, 0, 0, 0, 0, 0, 0, 0, 0, 0, 0, 0, 0, 0, 0, 0, 0, 0, 0, 0, 0, 0, 0, 0, 0], [0, 0, 0, 0, 0, 0, 0, 0, 0, 0, 0, 0, 0, 0, 0, 0, 0, 0, 0, 0, 0, 0, 0, 0, 0, 0, 0, 0, 0, 0, 0, 0, 0, 0, 0, 0, 0, 0, 0, 0], [0, 0, 0, 0, 0, 0, 0, 0, 0, 0, 0, 0, 0, 0, 0, 0, 0, 0, 0, 0, 0, 0, 0, 0, 0, 0, 0, 0, 0, 0, 0, 0, 0, 0, 0, 0, 0, 0, 0, 0], [0, 0, 0, 0, 0, 0, 0, 0, 0, 0, 0, 0, 0, 0, 0, 0, 0, 0, 0, 0, 0, 0, 0, 0, 0, 0, 0, 0, 0, 0, 0, 0, 0, 0, 0, 0, 0, 0, 0, 0], [0, 0, 0, 0, 0, 0, 0, 0, 0, 0, 0, 0, 0, 0, 0, 0, 0, 0, 0, 0, 0, 0, 0, 0, 0, 0, 0, 0, 0, 0, 0, 0, 0, 0, 0, 0, 0, 0, 0, 0], [0, 0, 0, 0, 0, 0, 0, 0, 0, 0, 0, 0, 0, 0, 0, 0, 0, 0, 0, 0, 0, 0, 0, 0, 0, 0, 0, 0, 0, 0, 0, 0, 0, 0, 0, 0, 0, 0, 0, 0], [0, 0, 0, 0, 0, 0, 0, 0, 0, 0, 0, 0, 0, 0, 0, 0, 0, 0, 0, 0, 0, 0, 0, 0, 0, 0, 0, 0, 0, 0, 0, 0, 0, 0, 0, 0, 0, 0, 0, 0], [0, 0, 0, 0, 0, 0, 0, 0, 0, 0, 0, 0, 0, 0, 0, 0, 0, 0, 0, 0, 0, 0, 0, 0, 0, 0, 0, 0, 0, 0, 0, 0, 0, 0, 0, 0, 0, 0, 0, 0], [0, 0, 0, 0, 0, 0, 0, 0, 0, 0, 0, 0, 0, 0, 0, 0, 0, 0, 0, 0, 0, 0, 0, 0, 0, 0, 0, 0, 0, 0, 0, 0, 0, 0, 0, 0, 0, 0, 0, 0], [0, 0, 0, 0, 0, 0, 0, 0, 0, 0, 0, 0, 0, 0, 0, 0, 0, 0, 0, 0, 0, 0, 0, 0, 0, 0, 0, 0, 0, 0, 0, 0, 0, 0, 0, 0, 0, 0, 0, 0]]];

q = [[[25], [14], [15], [6], [23], [24], [7], [10], [9], [11], [8], [8], [11], [22], [6], [14], [25], [20], [20], [25], [10], [6], [19], [13], [18], [22], [17], [21], [9], [15], [7], [18], [20], [19], [5], [19], [12], [9], [17], [6]], [[7], [8], [6], [23], [5], [19], [18], [14], [23], [10], [15], [8], [7], [19], [12], [25], [15], [22], [6], [9], [11], [12], [18], [21], [25], [20], [8], [16], [10], [13], [18], [8], [24], [14], [24], [6], [24], [6], [7], [6]], [[13], [5], [24], [5], [9], [9], [22], [12], [12], [20], [25], [14], [9], [17], [16], [18], [19], [10], [15], [5], [16], [8], [10], [12], [22], [21], [11], [14], [24], [20], [11], [21], [18], [15], [9], [19], [18], [8], [10], [14]], [[9], [22], [9], [21], [22], [25], [17], [20], [20], [25], [8], [19], [24], [7], [18], [5], [19], [6], [18], [20], [20], [18], [13], [5], [10], [25], [20], [6], [9], [17], [7], [9], [13], [21], [13], [9], [21], [17], [11], [20]], [[7], [23], [21], [13], [19], [22], [25], [22], [18], [5], [5], [8], [8], [17], [22], [14], [10], [12], [11], [22], [15], [23], [9], [15], [18], [10], [15], [6], [9], [8], [21], [7], [16], [23], [16], [12], [9], [8], [5], [14]], [[12], [25], [18], [22], [13], [25], [22], [23], [23], [11], [21], [8], [20], [10], [25], [18], [12], [18], [5], [19], [9], [5], [20], [16], [23], [14], [13], [16], [14], [25], [7], [14], [23], [17], [14], [9], [13], [17], [15], [11]], [[5], [10], [24], [22], [23], [10], [15], [11], [15], [8], [9], [25], [15], [5], [15], [10], [10], [22], [17], [5], [15], [13], [21], [23], [15], [20], [11], [5], [14], [11], [8], [23], [8], [9], [21], [18], [6], [7], [15], [19]], [[22], [25], [13], [14], [11], [11], [24], [23], [9], [12], [7], [14], [20], [22], [13], [16], [25], [21], [13], [19], [25], [18], [8], [5], [10], [6], [5], [18], [23], [25], [24], [16], [6], [23], [11], [21], [16], [17], [20], [17]], [[7], [24], [6], [7], [22], [19], [9], [19], [20], [23], [8], [16], [25], [22], [11], [12], [10], [12], [9], [24], [7], [21], [16], [7], [23], [7], [6], [9], [5], [13], [9], [16], [10], [19], [12], [15], [13], [5], [15], [18]], [[5], [16], [23], [12], [25], [8], [10], [17], [5], [11], [16], [14], [23], [17], [14], [19], [14], [20], [22], [10], [21], [15], [25], [17], [10], [12], [16], [8], [24], [8], [9], [9], [17], [10], [14], [8], [13], [7], [14], [18]]];
Q = [[46], [44], [46], [49], [45], [51], [44], [51], [44], [46]];
